peakDumbCharging = 18500; 
Machine = anon_enum(16); 
machineSpeed = [3700,3700,3700,3700,3700,3700,3700,3700,3700,3700,3700,3700,3700,3700,3700,3700]; 
machineLoad = [3700,3700,3700,3700,3700,3700,3700,3700,3700,3700,3700,3700,3700,3700,3700,3700]; 
Car = anon_enum(22); 
demandCar = [2760,11160,3320,28080,11680,2240,4640,3640,4800,30960,1480,8640,240,15480,4280,16720,14680,6240,4320,2360,27240,31520]; 
arrivalCar = [79,70,70,70,64,64,62,62,62,55,53,52,52,50,50,48,47,47,35,34,34,34]; 
departureCar = [82,76,73,80,69,66,64,64,67,67,55,56,53,56,52,54,53,49,40,36,43,49]; 
